5803112614315216649502,2,1,2,03,9,1,2,014,11,1,2,09,10,1,2,012,13,1,2,014,9,1,2,01,12,1,2,05,1,1,2,05,1,1,2,01,2,1,2,03,13,1,2,07,4,1,2,013,13,1,2,04,14,1,2,010,5,1,2,011,5,1,2,011,3,1,2,01,5,1,2,05,2,1,2,07,1,1,2,05,13,1,2,04,11,1,2,06,10,1,2,03,5,1,2,013,5,1,2,02,10,1,2,013,15,1,2,07,5,1,2,02,1,1,2,014,9,1,2,02,6,1,2,010,14,1,2,08,11,1,2,013,8,1,2,09,10,1,2,014,2,1,2,013,13,1,2,05,15,1,2,03,5,1,2,014,8,1,2,010,9,1,2,014,8,1,2,08,12,1,2,01,10,1,2,014,10,1,2,05,1,1,2,011,15,1,2,010,14,1,2,07,3,1,2,015,1,1,2,0